set VV := 0 1 2 3 4 5 6 7 8 9 10 11 12 13 14 15 16 17 18 19 20 21 22 23 24 25 26 27 28 29 30 ;
set VS := 0 1 2 3 4 5 6 7 8 9 10 11 12 13 14 15 16 17 18 19 20 21 22 23 24 25 26 27 28 29 30 31 32 33 34 35 36 37 38 39 40 41 42 43 44 45 46 47 48 49 50 51 52 53 54 55 56 57 58 59 60 61 62 63 64 65 66 ;
param cv := 
0 17
1 15
2 21
3 10
4 23
5 19
6 11
7 13
8 24
9 12
10 25
11 12
12 20
13 19
14 15
15 23
16 21
17 21
18 24
19 11
20 18
21 21
22 20
23 25
24 20
25 21
26 20
27 22
28 22
29 23
30 17
;
param cs := 
0 21
1 39
2 23
3 24
4 36
5 31
6 28
7 38
8 37
9 36
10 35
11 37
12 37
13 21
14 40
15 24
16 25
17 40
18 26
19 37
20 34
21 30
22 20
23 22
24 29
25 23
26 35
27 25
28 25
29 24
30 34
31 35
32 35
33 23
34 32
35 27
36 40
37 38
38 28
39 32
40 22
41 22
42 33
43 30
44 32
45 20
46 37
47 40
48 20
49 33
50 26
51 23
52 36
53 35
54 39
55 21
56 40
57 37
58 23
59 28
60 37
61 33
62 35
63 36
64 35
65 39
66 22
;
param bv:	 0 1 2 3 4 5 6 7 8 9 10 11 12 13 14 15 16 17 18 19 20 21 22 23 24 25 26 27 28 29 30 := 
		0 0 0 0 0 0 0 0 0 0 0 0 0 0 0 0 0 0 0 12 0 0 12 0 0 0 0 0 0 0 0 23 
		1 0 0 0 16 14 0 0 0 24 0 0 0 0 0 0 0 0 0 0 0 0 0 0 0 0 0 0 0 0 0 23 
		2 0 0 0 0 0 0 0 0 0 0 17 17 0 0 0 0 0 0 0 0 0 0 20 0 0 0 0 0 0 18 0 
		3 0 0 0 0 0 0 0 0 0 0 23 0 0 0 0 0 0 0 0 0 23 0 0 0 0 0 0 0 0 0 0 
		4 0 0 0 0 0 0 0 0 0 0 0 0 0 0 0 0 0 0 0 0 0 0 0 18 0 0 0 0 0 0 18 
		5 0 0 0 0 0 0 0 0 0 15 0 0 0 0 0 0 25 0 0 0 0 0 0 0 0 13 0 0 0 0 0 
		6 0 0 0 0 0 0 0 0 0 0 0 0 0 0 0 0 0 0 0 0 0 0 0 12 21 0 0 10 0 0 0 
		7 0 0 0 0 0 0 0 0 0 0 0 0 12 0 0 0 0 0 0 0 0 0 0 0 0 0 0 0 0 0 0 
		8 0 0 0 0 0 0 0 0 0 0 0 0 0 0 16 0 20 0 21 0 0 0 0 0 0 0 0 0 0 0 0 
		9 0 0 0 0 0 0 0 0 0 0 0 21 0 0 0 0 0 14 0 0 14 0 0 0 22 0 0 0 0 10 16 
		10 0 0 0 0 0 0 0 0 0 0 0 0 0 0 0 0 0 0 0 0 0 0 0 0 0 0 0 0 0 0 18 
		11 0 0 0 0 0 0 0 0 0 0 0 0 23 0 0 0 25 0 0 0 0 0 0 25 14 0 0 25 0 0 0 
		12 0 0 0 0 0 0 0 0 0 0 0 0 0 0 0 0 0 0 0 0 0 0 0 0 0 17 0 0 0 0 0 
		13 0 0 0 0 0 0 0 0 0 0 0 0 0 0 0 0 23 0 0 20 0 0 0 0 0 0 0 0 22 0 18 
		14 0 0 0 0 0 0 0 0 0 0 0 0 0 0 0 0 0 0 0 0 0 0 0 0 25 0 0 22 0 0 0 
		15 0 0 0 0 0 0 0 0 0 0 0 0 0 0 0 0 0 12 0 0 0 19 0 0 0 0 0 0 0 0 0 
		16 0 0 0 0 0 0 0 0 0 0 0 0 0 0 0 0 0 0 0 0 0 0 20 0 22 10 0 15 18 0 0 
		17 0 0 0 0 0 0 0 0 0 0 0 0 0 0 0 0 0 0 0 0 25 0 0 14 0 0 0 0 0 0 21 
		18 0 0 0 0 0 0 0 0 0 0 0 0 0 0 0 0 0 0 0 0 0 13 0 19 0 0 19 0 0 0 0 
		19 0 0 0 0 0 0 0 0 0 0 0 0 0 0 0 0 0 0 0 0 0 0 0 0 19 25 0 0 0 0 0 
		20 0 0 0 0 0 0 0 0 0 0 0 0 0 0 0 0 0 0 0 0 0 0 25 0 0 0 0 12 0 0 16 
		21 0 0 0 0 0 0 0 0 0 0 0 0 0 0 0 0 0 0 0 0 0 0 0 0 0 0 0 0 17 0 0 
		22 0 0 0 0 0 0 0 0 0 0 0 0 0 0 0 0 0 0 0 0 0 0 0 0 0 0 0 0 15 0 0 
		23 0 0 0 0 0 0 0 0 0 0 0 0 0 0 0 0 0 0 0 0 0 0 0 0 19 0 0 17 0 0 0 
		24 0 0 0 0 0 0 0 0 0 0 0 0 0 0 0 0 0 0 0 0 0 0 0 0 0 0 0 17 0 0 0 
		25 0 0 0 0 0 0 0 0 0 0 0 0 0 0 0 0 0 0 0 0 0 0 0 0 0 0 0 0 0 0 0 
		26 0 0 0 0 0 0 0 0 0 0 0 0 0 0 0 0 0 0 0 0 0 0 0 0 0 0 0 0 0 0 16 
		27 0 0 0 0 0 0 0 0 0 0 0 0 0 0 0 0 0 0 0 0 0 0 0 0 0 0 0 0 20 0 0 
		28 0 0 0 0 0 0 0 0 0 0 0 0 0 0 0 0 0 0 0 0 0 0 0 0 0 0 0 0 0 19 11 
		29 0 0 0 0 0 0 0 0 0 0 0 0 0 0 0 0 0 0 0 0 0 0 0 0 0 0 0 0 0 0 0 
		30 0 0 0 0 0 0 0 0 0 0 0 0 0 0 0 0 0 0 0 0 0 0 0 0 0 0 0 0 0 0 0 
;
param bs:	 0 1 2 3 4 5 6 7 8 9 10 11 12 13 14 15 16 17 18 19 20 21 22 23 24 25 26 27 28 29 30 31 32 33 34 35 36 37 38 39 40 41 42 43 44 45 46 47 48 49 50 51 52 53 54 55 56 57 58 59 60 61 62 63 64 65 66 := 
		0 0 0 0 0 0 0 0 0 0 0 0 0 0 23 0 0 0 0 0 0 0 0 0 0 0 0 0 0 0 0 0 0 28 0 0 0 0 0 0 0 0 0 0 0 0 0 0 0 32 36 0 38 0 0 0 30 0 0 0 0 0 0 39 0 0 0 0 
		1 0 0 0 0 0 0 0 0 0 0 0 28 22 0 0 0 0 0 0 0 0 0 0 0 0 0 0 0 0 0 0 0 38 0 0 39 0 0 0 0 0 0 0 0 0 0 0 0 0 0 0 0 0 0 0 0 0 37 0 0 0 40 0 0 0 0 0 
		2 0 0 0 0 0 0 0 0 25 36 0 0 0 0 0 0 0 0 0 0 0 0 0 0 0 0 0 0 0 0 0 0 0 0 34 0 0 0 34 23 0 0 0 29 0 0 0 0 0 0 0 0 0 0 0 0 0 0 0 33 0 0 0 0 0 0 27 
		3 0 0 0 0 37 0 0 0 0 24 0 0 0 0 0 0 0 0 0 0 0 0 0 0 0 0 20 0 0 0 26 0 0 0 0 0 0 0 0 0 0 0 0 32 0 38 0 33 0 28 22 0 0 0 0 0 0 0 0 0 0 0 0 28 0 0 0 
		4 0 0 0 37 0 0 0 0 0 20 0 0 0 0 0 28 0 0 0 20 0 0 0 0 0 0 0 0 0 0 0 0 0 0 0 0 0 0 0 0 0 0 0 22 0 0 0 0 0 0 0 0 0 0 0 0 23 0 0 0 0 0 0 0 0 0 0 
		5 0 0 0 0 0 0 0 0 0 0 0 0 0 0 0 28 0 0 0 38 0 0 0 0 0 25 0 0 0 0 0 0 0 0 0 0 0 0 0 0 0 0 0 0 0 0 0 0 0 0 0 0 0 0 0 0 0 0 0 0 0 0 0 0 0 0 22 
		6 0 0 0 0 0 0 0 0 0 0 0 0 0 0 0 0 38 0 0 0 0 0 0 37 0 0 0 0 0 0 0 0 0 0 0 0 0 0 0 0 0 0 0 0 0 0 0 0 0 0 0 0 0 37 0 0 20 40 0 0 0 0 0 0 0 0 0 
		7 0 0 0 0 0 0 0 0 0 0 0 0 30 0 0 0 0 0 0 0 0 0 0 0 0 0 0 0 0 0 0 0 0 0 0 0 0 0 0 0 0 0 0 0 0 0 0 0 0 0 0 0 0 0 0 0 0 0 0 0 0 0 0 0 0 0 0 
		8 0 0 25 0 0 0 0 0 0 0 0 0 0 0 0 0 0 29 0 0 0 0 0 0 0 0 0 0 0 0 35 0 0 0 0 0 0 0 0 0 0 0 0 0 0 0 0 0 0 0 0 0 0 0 0 0 0 0 0 40 0 0 0 0 36 0 0 
		9 0 0 36 24 20 0 0 0 0 0 0 0 0 0 0 35 38 0 0 0 0 0 0 0 0 30 0 0 0 0 0 0 0 0 0 0 0 0 0 0 0 0 26 0 0 0 0 29 30 0 0 0 0 0 0 0 0 0 0 0 0 28 0 0 0 0 0 
		10 0 0 0 0 0 0 0 0 0 0 0 0 0 0 33 0 0 0 0 0 31 0 0 0 0 0 0 0 0 0 0 0 0 0 0 0 33 0 0 0 0 0 0 0 0 0 0 0 0 0 0 0 0 0 0 0 0 39 22 0 0 0 0 27 0 0 0 
		11 0 28 0 0 0 0 0 0 0 0 0 0 0 0 0 0 20 0 0 0 0 0 0 0 0 0 0 0 0 0 0 0 0 0 0 0 0 0 0 0 0 0 0 0 0 0 0 0 0 0 0 0 0 0 0 0 0 0 0 0 0 31 0 0 0 0 0 
		12 0 22 0 0 0 0 0 30 0 0 0 0 0 0 0 0 0 0 0 0 0 0 0 0 0 0 33 0 34 0 0 0 0 0 0 0 37 0 37 34 0 0 0 0 26 0 0 0 34 0 0 0 0 0 0 0 0 0 0 0 0 0 39 0 0 0 0 
		13 23 0 0 0 0 0 0 0 0 0 0 0 0 0 0 0 0 0 40 0 0 0 26 0 33 0 0 0 0 0 0 0 0 0 0 29 0 0 0 0 0 0 0 40 27 0 0 0 0 0 0 0 0 0 0 0 20 33 30 0 0 0 0 0 0 0 0 
		14 0 0 0 0 0 0 0 0 0 0 33 0 0 0 0 0 0 0 0 0 0 0 0 0 39 31 0 0 0 0 0 0 0 0 0 0 0 0 0 0 0 0 29 0 0 0 0 0 0 20 36 0 0 0 0 0 0 0 0 0 0 0 0 0 0 0 0 
		15 0 0 0 0 28 28 0 0 0 35 0 0 0 0 0 0 0 0 0 21 0 30 0 0 0 0 0 0 0 0 0 0 0 0 0 0 0 0 0 0 0 0 0 0 0 0 0 0 0 0 0 0 0 0 0 0 0 0 0 0 0 32 0 0 0 0 0 
		16 0 0 0 0 0 0 38 0 0 38 0 20 0 0 0 0 0 0 0 0 0 0 29 33 0 0 0 0 0 0 0 0 0 0 0 0 0 0 0 0 0 0 0 0 0 0 0 28 0 0 0 27 0 0 0 0 0 0 0 0 0 0 0 0 0 0 0 
		17 0 0 0 0 0 0 0 0 29 0 0 0 0 0 0 0 0 0 0 0 0 0 0 0 26 0 0 23 0 23 0 0 0 0 0 0 0 0 0 0 0 0 0 0 0 0 35 0 0 0 0 0 0 0 0 35 0 0 0 0 0 0 0 0 0 33 0 
		18 0 0 0 0 0 0 0 0 0 0 0 0 0 40 0 0 0 0 0 0 0 0 33 0 37 0 0 0 0 0 0 0 0 0 0 0 0 0 0 0 0 0 0 0 0 0 0 0 0 0 0 36 0 37 0 0 28 0 31 0 0 0 0 0 0 0 0 
		19 0 0 0 0 20 38 0 0 0 0 0 0 0 0 0 21 0 0 0 0 0 34 0 0 0 0 0 0 0 0 0 0 0 0 0 0 0 0 0 0 0 0 0 0 0 0 0 0 0 0 0 0 0 0 0 38 0 0 0 0 0 28 30 0 0 0 0 
		20 0 0 0 0 0 0 0 0 0 0 31 0 0 0 0 0 0 0 0 0 0 0 0 0 0 0 31 0 0 0 0 0 24 0 0 0 0 0 0 0 0 0 0 0 0 0 0 0 35 0 0 0 0 0 0 0 0 25 0 0 0 0 37 28 0 33 0 
		21 0 0 0 0 0 0 0 0 0 0 0 0 0 0 0 30 0 0 0 34 0 0 0 0 0 0 0 0 0 0 0 0 20 0 22 0 0 0 0 0 40 0 0 33 0 0 0 0 0 0 0 0 0 0 38 0 0 0 0 20 0 0 0 0 0 0 0 
		22 0 0 0 0 0 0 0 0 0 0 0 0 0 26 0 0 29 0 33 0 0 0 0 0 0 0 0 0 0 0 0 0 0 0 0 0 0 0 0 0 0 0 0 0 0 0 0 38 0 0 0 0 0 0 0 0 24 0 0 0 0 33 0 0 0 0 0 
		23 0 0 0 0 0 0 37 0 0 0 0 0 0 0 0 0 33 0 0 0 0 0 0 0 0 0 0 27 0 0 0 0 0 0 0 29 0 0 0 0 0 0 0 0 0 0 0 0 0 28 0 0 0 0 0 0 0 0 0 0 0 0 0 0 0 0 0 
		24 0 0 0 0 0 0 0 0 0 0 0 0 0 33 39 0 0 26 37 0 0 0 0 0 0 0 0 0 0 21 0 27 0 0 0 0 0 0 0 0 0 21 0 0 0 0 0 0 0 0 0 0 0 0 0 0 0 0 0 0 0 0 0 0 0 0 0 
		25 0 0 0 0 0 25 0 0 0 30 0 0 0 0 31 0 0 0 0 0 0 0 0 0 0 0 0 0 0 0 0 0 0 0 0 0 0 0 0 0 0 0 0 0 0 0 0 0 0 0 0 0 0 0 0 0 0 0 0 0 0 0 0 0 0 0 0 
		26 0 0 0 20 0 0 0 0 0 0 0 0 33 0 0 0 0 0 0 0 31 0 0 0 0 0 0 0 0 21 0 0 0 0 0 0 0 0 0 0 0 0 0 0 0 0 0 0 29 0 0 0 35 0 0 0 0 0 0 38 0 0 0 0 0 0 0 
		27 0 0 0 0 0 0 0 0 0 0 0 0 0 0 0 0 0 23 0 0 0 0 0 27 0 0 0 0 0 0 0 0 0 0 0 0 0 0 0 0 0 32 0 0 0 0 0 0 0 0 0 0 0 0 0 0 0 0 0 0 0 0 0 0 0 0 0 
		28 0 0 0 0 0 0 0 0 0 0 0 0 34 0 0 0 0 0 0 0 0 0 0 0 0 0 0 0 0 0 0 0 0 0 0 0 0 33 0 0 40 0 0 0 31 0 0 0 0 0 0 0 0 0 0 31 0 0 0 24 0 0 24 0 0 0 0 
		29 0 0 0 0 0 0 0 0 0 0 0 0 0 0 0 0 0 23 0 0 0 0 0 0 21 0 21 0 0 0 0 0 0 0 0 0 0 0 0 0 0 0 0 0 35 0 0 35 0 0 0 0 0 0 0 0 0 0 39 0 0 0 39 0 0 0 0 
		30 0 0 0 26 0 0 0 0 35 0 0 0 0 0 0 0 0 0 0 0 0 0 0 0 0 0 0 0 0 0 0 0 24 0 37 0 0 0 0 36 0 0 0 0 0 0 26 34 0 0 0 0 0 35 0 0 0 0 0 0 0 0 0 0 0 0 23 
		31 0 0 0 0 0 0 0 0 0 0 0 0 0 0 0 0 0 0 0 0 0 0 0 0 27 0 0 0 0 0 0 0 22 0 0 0 28 0 0 0 0 0 0 0 35 0 0 0 0 26 0 33 0 0 0 0 0 0 0 0 0 0 0 0 0 0 0 
		32 28 38 0 0 0 0 0 0 0 0 0 0 0 0 0 0 0 0 0 0 24 20 0 0 0 0 0 0 0 0 24 22 0 0 0 0 0 0 0 0 0 0 0 0 0 29 0 0 0 0 0 21 0 0 0 0 0 30 24 0 20 38 0 0 0 0 0 
		33 0 0 0 0 0 0 0 0 0 0 0 0 0 0 0 0 0 0 0 0 0 0 0 0 0 0 0 0 0 0 0 0 0 0 0 0 0 0 0 0 0 0 0 0 0 0 0 0 0 0 0 0 0 0 0 38 0 0 0 21 0 0 0 0 0 0 26 
		34 0 0 34 0 0 0 0 0 0 0 0 0 0 0 0 0 0 0 0 0 0 22 0 0 0 0 0 0 0 0 37 0 0 0 0 0 0 0 0 0 0 0 0 0 0 0 0 0 0 0 0 0 0 0 0 0 0 0 0 0 0 0 0 0 0 0 31 
		35 0 39 0 0 0 0 0 0 0 0 0 0 0 29 0 0 0 0 0 0 0 0 0 29 0 0 0 0 0 0 0 0 0 0 0 0 0 0 0 0 0 0 0 0 0 0 0 0 0 0 0 33 0 0 0 0 20 27 0 0 0 0 0 29 0 21 0 
		36 0 0 0 0 0 0 0 0 0 0 33 0 37 0 0 0 0 0 0 0 0 0 0 0 0 0 0 0 0 0 0 28 0 0 0 0 0 0 0 0 0 0 0 0 0 0 0 0 0 0 0 23 0 0 0 39 0 0 0 0 0 0 0 0 21 0 0 
		37 0 0 0 0 0 0 0 0 0 0 0 0 0 0 0 0 0 0 0 0 0 0 0 0 0 0 0 0 33 0 0 0 0 0 0 0 0 0 0 0 0 0 0 34 0 0 0 0 0 0 0 0 0 0 0 0 0 0 0 0 0 0 23 0 0 0 39 
		38 0 0 34 0 0 0 0 0 0 0 0 0 37 0 0 0 0 0 0 0 0 0 0 0 0 0 0 0 0 0 0 0 0 0 0 0 0 0 0 0 0 0 0 0 0 0 0 0 0 0 0 0 0 0 0 0 0 0 0 0 0 0 0 0 0 0 0 
		39 0 0 23 0 0 0 0 0 0 0 0 0 34 0 0 0 0 0 0 0 0 0 0 0 0 0 0 0 0 0 36 0 0 0 0 0 0 0 0 0 32 0 0 0 0 0 0 0 0 0 0 0 0 0 0 0 0 0 0 0 0 0 0 0 34 0 0 
		40 0 0 0 0 0 0 0 0 0 0 0 0 0 0 0 0 0 0 0 0 0 40 0 0 0 0 0 0 40 0 0 0 0 0 0 0 0 0 0 32 0 24 0 0 0 0 0 0 0 0 0 0 0 0 0 0 0 0 0 0 0 0 0 24 0 0 0 
		41 0 0 0 0 0 0 0 0 0 0 0 0 0 0 0 0 0 0 0 0 0 0 0 0 21 0 0 32 0 0 0 0 0 0 0 0 0 0 0 0 24 0 25 0 0 0 0 20 0 0 0 0 0 0 27 0 0 0 0 0 27 0 0 0 0 0 0 
		42 0 0 0 0 0 0 0 0 0 26 0 0 0 0 29 0 0 0 0 0 0 0 0 0 0 0 0 0 0 0 0 0 0 0 0 0 0 0 0 0 0 25 0 0 0 31 0 0 0 0 0 0 0 0 0 0 0 0 0 0 22 0 0 0 0 0 0 
		43 0 0 29 32 22 0 0 0 0 0 0 0 0 40 0 0 0 0 0 0 0 33 0 0 0 0 0 0 0 0 0 0 0 0 0 0 0 34 0 0 0 0 0 0 0 0 0 0 0 0 0 0 0 0 0 0 0 0 0 0 0 0 0 0 0 0 0 
		44 0 0 0 0 0 0 0 0 0 0 0 0 26 27 0 0 0 0 0 0 0 0 0 0 0 0 0 0 31 35 0 35 0 0 0 0 0 0 0 0 0 0 0 0 0 0 0 0 0 0 0 40 0 0 0 0 0 0 0 0 0 0 0 0 0 0 0 
		45 0 0 0 38 0 0 0 0 0 0 0 0 0 0 0 0 0 0 0 0 0 0 0 0 0 0 0 0 0 0 0 0 29 0 0 0 0 0 0 0 0 0 31 0 0 0 0 28 0 0 0 0 0 0 0 0 0 27 0 0 0 0 0 0 0 0 0 
		46 0 0 0 0 0 0 0 0 0 0 0 0 0 0 0 0 0 35 0 0 0 0 0 0 0 0 0 0 0 0 26 0 0 0 0 0 0 0 0 0 0 0 0 0 0 0 0 29 0 34 0 0 0 0 0 0 0 0 0 36 0 0 0 35 0 0 0 
		47 0 0 0 33 0 0 0 0 0 29 0 0 0 0 0 0 28 0 0 0 0 0 38 0 0 0 0 0 0 35 34 0 0 0 0 0 0 0 0 0 0 20 0 0 0 28 29 0 0 0 0 0 0 0 39 0 0 0 0 0 0 0 0 0 0 0 0 
		48 32 0 0 0 0 0 0 0 0 30 0 0 34 0 0 0 0 0 0 0 35 0 0 0 0 0 29 0 0 0 0 0 0 0 0 0 0 0 0 0 0 0 0 0 0 0 0 0 0 0 0 0 0 40 0 0 0 0 0 0 0 0 0 0 0 0 0 
		49 36 0 0 28 0 0 0 0 0 0 0 0 0 0 20 0 0 0 0 0 0 0 0 28 0 0 0 0 0 0 0 26 0 0 0 0 0 0 0 0 0 0 0 0 0 0 34 0 0 0 0 31 0 0 0 0 0 0 0 0 0 0 0 0 0 0 0 
		50 0 0 0 22 0 0 0 0 0 0 0 0 0 0 36 0 0 0 0 0 0 0 0 0 0 0 0 0 0 0 0 0 0 0 0 0 0 0 0 0 0 0 0 0 0 0 0 0 0 0 0 34 21 0 21 0 0 0 0 0 30 0 40 35 0 0 0 
		51 38 0 0 0 0 0 0 0 0 0 0 0 0 0 0 0 27 0 36 0 0 0 0 0 0 0 0 0 0 0 0 33 21 0 0 33 23 0 0 0 0 0 0 0 40 0 0 0 0 31 34 0 40 0 0 0 0 0 25 0 31 0 0 0 0 0 32 
		52 0 0 0 0 0 0 0 0 0 0 0 0 0 0 0 0 0 0 0 0 0 0 0 0 0 0 35 0 0 0 0 0 0 0 0 0 0 0 0 0 0 0 0 0 0 0 0 0 0 0 21 40 0 0 0 0 0 39 33 0 39 0 0 0 0 23 0 
		53 0 0 0 0 0 0 37 0 0 0 0 0 0 0 0 0 0 0 37 0 0 0 0 0 0 0 0 0 0 0 35 0 0 0 0 0 0 0 0 0 0 0 0 0 0 0 0 0 40 0 0 0 0 0 0 0 0 0 0 0 0 0 0 0 0 0 0 
		54 0 0 0 0 0 0 0 0 0 0 0 0 0 0 0 0 0 0 0 0 0 38 0 0 0 0 0 0 0 0 0 0 0 0 0 0 0 0 0 0 0 27 0 0 0 0 0 39 0 0 21 0 0 0 0 0 0 31 35 0 0 0 0 0 0 0 0 
		55 30 0 0 0 0 0 0 0 0 0 0 0 0 0 0 0 0 35 0 38 0 0 0 0 0 0 0 0 31 0 0 0 0 38 0 0 39 0 0 0 0 0 0 0 0 0 0 0 0 0 0 0 0 0 0 0 0 0 0 0 0 0 28 36 0 0 0 
		56 0 0 0 0 23 0 20 0 0 0 0 0 0 20 0 0 0 0 28 0 0 0 24 0 0 0 0 0 0 0 0 0 0 0 0 20 0 0 0 0 0 0 0 0 0 0 0 0 0 0 0 0 0 0 0 0 0 0 0 0 0 35 0 0 0 0 0 
		57 0 37 0 0 0 0 40 0 0 0 39 0 0 33 0 0 0 0 0 0 25 0 0 0 0 0 0 0 0 0 0 0 30 0 0 27 0 0 0 0 0 0 0 0 0 27 0 0 0 0 0 0 39 0 31 0 0 0 30 0 0 0 0 0 0 0 0 
		58 0 0 0 0 0 0 0 0 0 0 22 0 0 30 0 0 0 0 31 0 0 0 0 0 0 0 0 0 0 39 0 0 24 0 0 0 0 0 0 0 0 0 0 0 0 0 0 0 0 0 0 25 33 0 35 0 0 30 0 40 0 0 0 38 0 0 0 
		59 0 0 33 0 0 0 0 0 40 0 0 0 0 0 0 0 0 0 0 0 0 20 0 0 0 0 38 0 24 0 0 0 0 21 0 0 0 0 0 0 0 0 0 0 0 0 36 0 0 0 0 0 0 0 0 0 0 0 40 0 0 0 0 0 0 0 0 
		60 0 0 0 0 0 0 0 0 0 0 0 0 0 0 0 0 0 0 0 0 0 0 0 0 0 0 0 0 0 0 0 0 20 0 0 0 0 0 0 0 0 27 22 0 0 0 0 0 0 0 30 31 39 0 0 0 0 0 0 0 0 0 0 38 37 0 0 
		61 0 40 0 0 0 0 0 0 0 28 0 31 0 0 0 32 0 0 0 28 0 0 33 0 0 0 0 0 0 0 0 0 38 0 0 0 0 0 0 0 0 0 0 0 0 0 0 0 0 0 0 0 0 0 0 0 35 0 0 0 0 0 0 0 0 0 0 
		62 39 0 0 0 0 0 0 0 0 0 0 0 39 0 0 0 0 0 0 30 37 0 0 0 0 0 0 0 24 39 0 0 0 0 0 0 0 23 0 0 0 0 0 0 0 0 0 0 0 0 40 0 0 0 0 28 0 0 0 0 0 0 0 0 0 0 0 
		63 0 0 0 28 0 0 0 0 0 0 27 0 0 0 0 0 0 0 0 0 28 0 0 0 0 0 0 0 0 0 0 0 0 0 0 29 0 0 0 0 24 0 0 0 0 0 35 0 0 0 35 0 0 0 0 36 0 0 38 0 38 0 0 0 0 0 0 
		64 0 0 0 0 0 0 0 0 36 0 0 0 0 0 0 0 0 0 0 0 0 0 0 0 0 0 0 0 0 0 0 0 0 0 0 0 21 0 0 34 0 0 0 0 0 0 0 0 0 0 0 0 0 0 0 0 0 0 0 0 37 0 0 0 0 0 0 
		65 0 0 0 0 0 0 0 0 0 0 0 0 0 0 0 0 0 33 0 0 33 0 0 0 0 0 0 0 0 0 0 0 0 0 0 21 0 0 0 0 0 0 0 0 0 0 0 0 0 0 0 0 23 0 0 0 0 0 0 0 0 0 0 0 0 0 0 
		66 0 0 27 0 0 22 0 0 0 0 0 0 0 0 0 0 0 0 0 0 0 0 0 0 0 0 0 0 0 0 23 0 0 26 31 0 0 39 0 0 0 0 0 0 0 0 0 0 0 0 0 32 0 0 0 0 0 0 0 0 0 0 0 0 0 0 0 
;
